Set parameter TokenServer to value "opt-license.discovery.wisc.edu"
Set parameter PreCrush to value 1
Set parameter LazyConstraints to value 1
Set parameter TimeLimit to value 600
Gurobi Optimizer version 9.5.1 build v9.5.1rc2 (linux64)
Thread count: 40 physical cores, 80 logical processors, using up to 32 threads
Optimize a model with 5041 rows, 4900 columns and 19530 nonzeros
Model fingerprint: 0x0ca9f289
Variable types: 0 continuous, 4900 integer (4900 binary)
Coefficient statistics:
  Matrix range     [1e+00, 1e+03]
  Objective range  [1e+00, 1e+01]
  Bounds range     [1e+00, 1e+00]
  RHS range        [1e+00, 8e+00]
Presolve removed 70 rows and 0 columns
Presolve time: 0.08s
Presolved: 4971 rows, 4900 columns, 19530 nonzeros
Variable types: 0 continuous, 4900 integer (4900 binary)

Root relaxation: objective 7.900927e+01, 1108 iterations, 0.09 seconds (0.07 work units)

    Nodes    |    Current Node    |     Objective Bounds      |     Work
 Expl Unexpl |  Obj  Depth IntInf | Incumbent    BestBd   Gap | It/Node Time

     0     0   79.00927    0  192          -   79.00927      -     -    1s
     0     0   79.66121    0  229          -   79.66121      -     -    2s
     0     0   79.72891    0  269          -   79.72891      -     -    3s
     0     0   79.74841    0  254          -   79.74841      -     -    4s
     0     0   79.75252    0  252          -   79.75252      -     -    4s
     0     0   79.89599    0  255          -   79.89599      -     -    5s
     0     0   79.90927    0  246          -   79.90927      -     -    6s
     0     0   79.91062    0  247          -   79.91062      -     -    6s
     0     0   79.93123    0  279          -   79.93123      -     -    7s
     0     0   79.98170    0  250          -   79.98170      -     -    8s
     0     0   79.99025    0  260          -   79.99025      -     -    8s
     0     0   79.99048    0  261          -   79.99048      -     -    9s
     0     0   79.99220    0  278          -   79.99220      -     -   10s
     0     0   79.99223    0  277          -   79.99223      -     -   10s
     0     0   80.01590    0  276          -   80.01590      -     -   11s
     0     0   80.01590    0  276          -   80.01590      -     -   12s
     0     2   80.01590    0  276          -   80.01590      -     -   14s
     1     4   80.05419    1  268          -   80.02678      -  99.0   15s
    11    16   80.51880    3  172          -   80.18128      -   106   21s
    30    32   81.36023    4   68          -   80.29392      -   140   29s
    36    64   80.81838    5  208          -   80.30000      -   136   32s
    51    64   80.80151    5  190          -   80.38112      -   141   38s
    63    96   80.89944    6  234          -   80.38112      -   138   42s
    95   128   80.97285    6   97          -   80.38112      -   140   54s
   105   128   81.43400    6   63          -   80.41970      -   142   58s
   114   128   81.36168    6  102          -   80.47264      -   147   60s
   133   160   81.56379    7   49          -   80.47264      -   146   66s
   159   192   81.30853    8   34          -   80.47264      -   144   74s
   161   192   80.60831    7  183          -   80.50620      -   145   75s
   191   225   81.92884    8  115          -   80.50620      -   142   84s
   198   225   81.97294    7   72          -   80.50620      -   142   87s
H  208   225                      86.3416654   80.50620  6.76%   140   90s
H  219   225                      85.1793878   80.50620  5.49%   140   94s
H  224   257                      82.1793878   80.50620  2.04%   138   96s
   236   257     cutoff   10        82.17939   80.50620  2.04%   139  100s
   256   274   81.44607   10   50   82.17939   80.50620  2.04%   135  105s
   308   293   81.51940   10   14   82.17939   80.50620  2.04%   124  116s
   369   315     cutoff   12        82.17939   80.50620  2.04%   114  128s
   388   315     cutoff   11        82.17939   80.50620  2.04%   111  131s
   447   339   81.87214   12   86   82.17939   80.50620  2.04%   104  143s
   481   339   80.95080    8  209   82.17939   80.50620  2.04%   100  150s
   528   355   81.99656   15   79   82.17939   80.50620  2.04%  94.9  161s
   616   375   81.46260   13  120   82.17939   80.50620  2.04%  88.7  180s
   634   375     cutoff   13        82.17939   80.50620  2.04%  88.4  186s
   694   392   81.64573   14  115   82.17939   80.50620  2.04%  85.1  198s
   702   392   81.83598   10  139   82.17939   80.50620  2.04%  85.3  201s
   769   411   81.82221   15  141   82.17939   80.50620  2.04%  83.3  214s
   861   411     cutoff   17        82.17939   80.50620  2.04%  79.8  231s
   949   411   81.89396   11   10   82.17939   80.50620  2.04%  77.1  247s
   970   432   81.71906   13   87   82.17939   80.50620  2.04%  76.4  250s
  1062   423   81.63585   14   98   82.17939   80.50620  2.04%  74.0  270s
  1150   423     cutoff    9        82.17939   80.50620  2.04%  71.5  284s
  1182   427     cutoff   16        82.17939   80.50620  2.04%  70.7  288s
  1288   447     cutoff   16        82.17939   80.53788  2.00%  69.0  306s
  1378   473   80.92605    8  143   82.17939   80.53788  2.00%  68.4  325s
  1488   491   81.07180    9  141   82.17939   80.53788  2.00%  67.0  348s
  1605   505   81.74326   11   96   82.17939   80.53788  2.00%  65.9  370s
  1676   505     cutoff   14        82.17939   80.53788  2.00%  65.1  385s
  1730   519   82.15106   13   81   82.17939   80.66725  1.84%  64.8  395s
  1849   535   80.90081    9  209   82.17939   80.67364  1.83%  64.1  421s
  1889   535     cutoff   11        82.17939   80.67364  1.83%  63.6  429s
  1985   540   81.18089   11  204   82.17939   80.67364  1.83%  63.1  448s
  2106   540   81.72937   11   69   82.17939   80.67364  1.83%  62.0  470s
  2132   551   81.59862   12  192   82.17939   80.67364  1.83%  62.0  475s
  2155   551     cutoff   12        82.17939   80.67364  1.83%  61.7  481s
  2288   551   82.00808   13  160   82.17939   80.67364  1.83%  61.0  505s
  2313   551   81.39042   14   13   82.17939   80.67364  1.83%  61.0  511s
  2450   555     cutoff   14        82.17939   80.67364  1.83%  60.0  532s
  2489   555   81.68239   11   70   82.17939   80.67364  1.83%  59.9  540s
  2541   555   81.76600   11   39   82.17939   80.67364  1.83%  59.8  547s
  2619   561   81.85382   15   11   82.17939   80.67364  1.83%  59.4  561s
  2644   561   81.88908   22  122   82.17939   80.67364  1.83%  59.4  567s
  2688   561   81.71689   14   76   82.17939   80.67364  1.83%  59.2  575s
  2771   581   81.94996   16  114   82.17939   80.67364  1.83%  58.9  588s
  2834   581   81.87563   16  183   82.17939   80.67364  1.83%  58.7  603s

Cutting planes:
  User: 232
  MIR: 14
  StrongCG: 11
  GUB cover: 7
  Zero half: 3
  Lazy constraints: 358

Explored 2941 nodes (172945 simplex iterations) in 620.93 seconds (3.93 work units)
Thread count was 32 (of 80 available processors)

Solution count 3: 82.1794 85.1794 86.3417 

Time limit reached
Best objective 8.217938777708e+01, best bound 8.067364104761e+01, gap 1.8323%

User-callback calls 7459, time in user-callback 612.78 sec
cuts :  317
